NAME          COPTPROB
OBJSENSE
  MIN
ROWS
 N  __OBJ___
 L  C1      
 L  C2      
 L  C3      
 L  C5      
 L  C9      
 L  C11     
 L  C12     
 L  C13     
 L  C14     
 L  C17     
 L  C20     
 L  C26     
 L  C32     
 L  C33     
 L  C34     
 L  C43     
 L  C44     
 L  C46     
 L  C49     
 L  C50     
 L  C51     
 L  C53     
 L  C59     
 L  C60     
 L  C63     
 L  C65     
 L  C66     
 L  C68     
 L  C71     
 L  C72     
 L  C78     
 L  C79     
 L  C80     
 L  C81     
 L  C84     
 L  C88     
 L  C89     
 L  C93     
 L  C97     
 L  C99     
 L  C102    
 L  C108    
 L  C109    
 L  C112    
 L  C115    
 L  C116    
 L  C117    
 L  C119    
 L  C120    
 L  C122    
 L  C124    
 L  C125    
 L  C126    
 L  C128    
 L  C129    
 L  C131    
 L  C134    
 L  C136    
 L  C138    
 L  C139    
 L  C142    
 L  C143    
 L  C144    
 L  C145    
 L  C148    
 L  C149    
 L  C150    
 L  C151    
 L  C152    
 L  C153    
 L  C157    
 L  C158    
 L  C159    
 L  C160    
 L  C162    
 L  C164    
 L  C166    
 L  C171    
 L  C174    
 L  C176    
 L  C179    
 L  C181    
 L  C184    
 L  C187    
 L  C188    
 L  C191    
 L  C193    
 L  C195    
 L  C197    
 L  C198    
 L  C199    
 L  C200    
 L  C203    
 L  C204    
 L  C205    
 L  C207    
 L  C209    
 L  C210    
 L  C212    
 L  C213    
 L  C214    
 L  C215    
 L  C216    
 L  C218    
 L  C220    
 L  C221    
 L  C224    
 L  C225    
 L  C228    
 L  C229    
 L  C232    
 L  C236    
 L  C238    
 L  C242    
 L  C246    
 L  C247    
 L  C248    
 L  C251    
 L  C253    
 L  C254    
 L  C257    
 L  C258    
 L  C259    
 L  C261    
 L  C267    
 L  C268    
 L  C269    
 L  C270    
 L  C277    
 L  C278    
 L  C280    
 L  C282    
 L  C287    
 L  C288    
 L  C293    
 L  C294    
 L  C300    
 L  C303    
 L  C304    
 L  C308    
 L  C309    
 L  C310    
 L  C311    
 L  C315    
 L  C325    
 L  C326    
 L  C328    
 L  C334    
 L  C336    
 L  C338    
 L  C339    
 L  C343    
 L  C347    
 L  C349    
 L  C351    
 L  C352    
 L  C353    
 L  C359    
 L  C363    
 L  C365    
 L  C366    
 L  C368    
 L  C369    
 L  C372    
 L  C374    
 L  C377    
 L  C385    
 L  C386    
 L  C387    
 L  C390    
 L  C391    
 L  C394    
 L  C395    
 L  C397    
 L  C399    
COLUMNS
    MARKER    'MARKER'                 'INTORG'
    x2        __OBJ___  315
    x2        C221      -1
    x2        C336      -1
    x3        __OBJ___  481
    x3        C99       -1
    x3        C129      -1
    x3        C200      -1
    x3        C238      -1
    x3        C259      -1
    x3        C310      -1
    x3        C390      -1
    x4        __OBJ___  844
    x4        C79       -1
    x4        C125      -1
    x4        C181      -1
    x4        C216      -1
    x4        C258      -1
    x4        C369      -1
    x6        __OBJ___  506
    x6        C2        -1
    x6        C68       -1
    x6        C164      -1
    x7        __OBJ___  942
    x7        C160      -1
    x7        C191      -1
    x7        C294      -1
    x7        C315      -1
    x8        __OBJ___  112
    x8        C162      -1
    x8        C193      -1
    x8        C377      -1
    x10       __OBJ___  193
    x10       C188      -1
    x10       C198      -1
    x10       C288      -1
    x10       C308      -1
    x10       C372      -1
    x15       __OBJ___  397
    x15       C50       -1
    x15       C171      -1
    x15       C229      -1
    x15       C304      -1
    x18       __OBJ___  476
    x18       C46       -1
    x18       C225      -1
    x18       C228      -1
    x18       C236      -1
    x18       C251      -1
    x19       __OBJ___  294
    x19       C43       -1
    x19       C59       -1
    x19       C66       -1
    x20       __OBJ___  107
    x20       C124      -1
    x20       C136      -1
    x20       C205      -1
    x23       __OBJ___  176
    x23       C1        -1
    x23       C148      -1
    x23       C151      -1
    x23       C325      -1
    x28       __OBJ___  347
    x28       C14       -1
    x28       C144      -1
    x30       __OBJ___  367
    x30       C248      -1
    x30       C363      -1
    x31       __OBJ___  975
    x31       C145      -1
    x31       C247      -1
    x31       C311      -1
    x31       C349      -1
    x33       __OBJ___  136
    x33       C210      -1
    x33       C352      -1
    x34       __OBJ___  384
    x34       C93       -1
    x34       C359      -1
    x40       __OBJ___  179
    x40       C253      -1
    x40       C278      -1
    x40       C282      -1
    x41       __OBJ___  123
    x41       C5        -1
    x41       C351      -1
    x41       C385      -1
    x50       __OBJ___  119
    x50       C9        -1
    x50       C309      -1
    x52       __OBJ___  842
    x52       C112      -1
    x52       C138      -1
    x52       C187      -1
    x54       __OBJ___  528
    x54       C139      -1
    x54       C159      -1
    x54       C268      -1
    x58       __OBJ___  528
    x58       C108      -1
    x58       C157      -1
    x58       C326      -1
    x59       __OBJ___  877
    x59       C44       -1
    x59       C213      -1
    x59       C261      -1
    x60       __OBJ___  501
    x60       C80       -1
    x60       C142      -1
    x60       C203      -1
    x60       C207      -1
    x60       C277      -1
    x62       __OBJ___  285
    x62       C49       -1
    x62       C126      -1
    x62       C209      -1
    x62       C214      -1
    x62       C270      -1
    x63       __OBJ___  234
    x63       C26       -1
    x63       C212      -1
    x63       C220      -1
    x63       C300      -1
    x63       C365      -1
    x65       __OBJ___  382
    x65       C13       -1
    x65       C32       -1
    x65       C287      -1
    x65       C303      -1
    x68       __OBJ___  8
    x68       C166      -1
    x68       C334      -1
    x69       __OBJ___  285
    x69       C60       -1
    x69       C150      -1
    x69       C394      -1
    x71       __OBJ___  433
    x71       C97       -1
    x71       C195      -1
    x71       C224      -1
    x75       __OBJ___  413
    x75       C109      -1
    x75       C117      -1
    x75       C280      -1
    x80       __OBJ___  577
    x80       C179      -1
    x80       C269      -1
    x80       C397      -1
    x83       __OBJ___  374
    x83       C34       -1
    x83       C149      -1
    x83       C176      -1
    x89       __OBJ___  148
    x89       C71       -1
    x89       C81       -1
    x89       C152      -1
    x89       C374      -1
    x91       __OBJ___  570
    x91       C11       -1
    x91       C84       -1
    x91       C128      -1
    x92       __OBJ___  445
    x92       C122      -1
    x92       C218      -1
    x92       C293      -1
    x95       __OBJ___  374
    x95       C53       -1
    x95       C65       -1
    x95       C184      -1
    x95       C395      -1
    x96       __OBJ___  724
    x96       C254      -1
    x96       C267      -1
    x96       C347      -1
    x96       C366      -1
    x96       C391      -1
    x101      __OBJ___  384
    x101      C51       -1
    x101      C72       -1
    x103      __OBJ___  642
    x103      C102      -1
    x103      C115      -1
    x103      C116      -1
    x103      C339      -1
    x103      C387      -1
    x104      __OBJ___  723
    x104      C33       -1
    x104      C187      -1
    x104      C386      -1
    x106      __OBJ___  802
    x106      C63       -1
    x106      C261      -1
    x107      __OBJ___  609
    x107      C32       -1
    x107      C79       -1
    x107      C191      -1
    x110      __OBJ___  165
    x110      C60       -1
    x110      C88       -1
    x110      C120      -1
    x110      C205      -1
    x112      __OBJ___  720
    x112      C112      -1
    x112      C269      -1
    x114      __OBJ___  207
    x114      C225      -1
    x114      C236      -1
    x114      C242      -1
    x116      __OBJ___  348
    x116      C293      -1
    x116      C363      -1
    x119      __OBJ___  517
    x119      C72       -1
    x119      C81       -1
    x119      C117      -1
    x119      C224      -1
    x123      __OBJ___  220
    x123      C20       -1
    x123      C352      -1
    x124      __OBJ___  919
    x124      C11       -1
    x124      C124      -1
    x124      C159      -1
    x130      __OBJ___  259
    x130      C195      -1
    x134      __OBJ___  574
    x134      C50       -1
    x134      C68       -1
    x134      C72       -1
    x134      C149      -1
    x138      __OBJ___  228
    x138      C179      -1
    x138      C204      -1
    x139      __OBJ___  257
    x139      C150      -1
    x139      C187      -1
    x139      C197      -1
    x139      C288      -1
    x140      __OBJ___  667
    x140      C293      -1
    x140      C315      -1
    x140      C359      -1
    x145      __OBJ___  349
    x145      C79       -1
    x145      C215      -1
    x147      __OBJ___  480
    x147      C72       -1
    x147      C79       -1
    x147      C131      -1
    x147      C136      -1
    x147      C138      -1
    x147      C153      -1
    x147      C304      -1
    x148      __OBJ___  459
    x148      C14       -1
    x148      C66       -1
    x149      __OBJ___  426
    x149      C60       -1
    x149      C117      -1
    x149      C270      -1
    x149      C300      -1
    x150      __OBJ___  298
    x150      C122      -1
    x150      C144      -1
    x150      C258      -1
    x150      C394      -1
    x152      __OBJ___  279
    x152      C81       -1
    x152      C149      -1
    x152      C232      -1
    x152      C338      -1
    x152      C395      -1
    x154      __OBJ___  282
    x154      C78       -1
    x154      C116      -1
    x154      C343      -1
    x154      C368      -1
    x156      __OBJ___  799
    x156      C46       -1
    x156      C120      -1
    x156      C248      -1
    x156      C259      -1
    x157      __OBJ___  923
    x157      C11       -1
    x157      C43       -1
    x157      C63       -1
    x157      C108      -1
    x161      __OBJ___  414
    x161      C136      -1
    x161      C152      -1
    x161      C184      -1
    x161      C195      -1
    x161      C199      -1
    x163      __OBJ___  57
    x163      C166      -1
    x163      C277      -1
    x171      __OBJ___  488
    x171      C12       -1
    x171      C66       -1
    x174      __OBJ___  134
    x174      C17       -1
    x174      C158      -1
    x174      C242      -1
    x175      __OBJ___  14
    x175      C117      -1
    x175      C138      -1
    x175      C188      -1
    x176      __OBJ___  656
    x176      C181      -1
    x176      C188      -1
    x177      __OBJ___  839
    x177      C50       -1
    x177      C53       -1
    x177      C134      -1
    x177      C282      -1
    x180      __OBJ___  117
    x180      C9        -1
    x180      C193      -1
    x180      C311      -1
    x182      __OBJ___  536
    x182      C12       -1
    x182      C109      -1
    x182      C238      -1
    x182      C352      -1
    x183      __OBJ___  269
    x183      C174      -1
    x183      C253      -1
    x185      __OBJ___  115
    x185      C26       -1
    x185      C84       -1
    x185      C224      -1
    x185      C236      -1
    x188      __OBJ___  382
    x188      C218      -1
    x191      __OBJ___  834
    x191      C17       -1
    x191      C33       -1
    x191      C80       -1
    x191      C267      -1
    x193      __OBJ___  272
    x193      C278      -1
    x193      C374      -1
    x193      C399      -1
    x196      __OBJ___  646
    x196      C334      -1
    x196      C351      -1
    x196      C387      -1
    x207      __OBJ___  68
    x207      C198      -1
    x209      __OBJ___  40
    x209      C143      -1
    x209      C153      -1
    x210      __OBJ___  57
    x210      C128      -1
    x210      C131      -1
    x210      C164      -1
    x210      C236      -1
    x210      C310      -1
    x212      __OBJ___  455
    x212      C116      -1
    x212      C184      -1
    x212      C238      -1
    x213      __OBJ___  951
    x213      C2        -1
    x213      C151      -1
    x213      C199      -1
    x213      C251      -1
    x213      C349      -1
    x217      __OBJ___  86
    x217      C232      -1
    x217      C303      -1
    x217      C343      -1
    x217      C397      -1
    x218      __OBJ___  4
    x218      C3        -1
    x218      C385      -1
    x219      __OBJ___  378
    x219      C14       -1
    x219      C89       -1
    x219      C148      -1
    x220      __OBJ___  64
    x220      C138      -1
    x220      C293      -1
    x226      __OBJ___  384
    x226      C26       -1
    x226      C221      -1
    x228      __OBJ___  558
    x228      C210      -1
    x228      C238      -1
    x229      __OBJ___  587
    x229      C1        -1
    x229      C267      -1
    x229      C309      -1
    x230      __OBJ___  397
    x230      C51       -1
    x230      C200      -1
    x231      __OBJ___  286
    x231      C247      -1
    x231      C253      -1
    x234      __OBJ___  12
    x234      C119      -1
    x234      C246      -1
    x234      C257      -1
    x236      __OBJ___  679
    x236      C50       -1
    x236      C71       -1
    x236      C139      -1
    x238      __OBJ___  734
    x238      C229      -1
    x238      C287      -1
    x238      C395      -1
    x239      __OBJ___  22
    x239      C93       -1
    x239      C399      -1
    x240      __OBJ___  190
    x240      C119      -1
    x240      C199      -1
    x240      C203      -1
    x240      C259      -1
    x240      C394      -1
    x243      __OBJ___  550
    x243      C109      -1
    x243      C197      -1
    x243      C212      -1
    x244      __OBJ___  179
    x244      C99       -1
    x244      C328      -1
    x247      __OBJ___  363
    x247      C65       -1
    x247      C129      -1
    x247      C224      -1
    x248      __OBJ___  611
    x248      C13       -1
    x248      C195      -1
    x250      __OBJ___  595
    x250      C33       -1
    x250      C198      -1
    x254      __OBJ___  723
    x254      C50       -1
    x254      C51       -1
    x254      C72       -1
    x254      C122      -1
    x255      __OBJ___  865
    x255      C20       -1
    x255      C261      -1
    x259      __OBJ___  451
    x259      C193      -1
    x259      C215      -1
    x260      __OBJ___  604
    x260      C49       -1
    x260      C160      -1
    x260      C326      -1
    x261      __OBJ___  305
    x261      C32       -1
    x261      C59       -1
    x262      __OBJ___  746
    x262      C122      -1
    x262      C187      -1
    x262      C258      -1
    x264      __OBJ___  426
    x264      C365      -1
    x264      C366      -1
    x266      __OBJ___  256
    x266      C152      -1
    x266      C184      -1
    x272      __OBJ___  82
    x272      C204      -1
    x272      C268      -1
    x273      __OBJ___  728
    x273      C115      -1
    x273      C215      -1
    x274      __OBJ___  461
    x274      C50       -1
    x274      C308      -1
    x276      __OBJ___  542
    x276      C66       -1
    x276      C191      -1
    x279      __OBJ___  144
    x279      C200      -1
    x279      C214      -1
    x279      C395      -1
    x282      __OBJ___  186
    x282      C60       -1
    x282      C187      -1
    x282      C259      -1
    x283      __OBJ___  478
    x283      C51       -1
    x283      C88       -1
    x283      C225      -1
    x285      __OBJ___  36
    x285      C53       -1
    x285      C353      -1
    x286      __OBJ___  66
    x286      C81       -1
    x286      C304      -1
    x287      __OBJ___  296
    x287      C78       -1
    x287      C174      -1
    x287      C212      -1
    x287      C216      -1
    x289      __OBJ___  411
    x289      C138      -1
    x289      C176      -1
    x289      C280      -1
    x289      C390      -1
    x291      __OBJ___  57
    x291      C232      -1
    x291      C399      -1
    x293      __OBJ___  253
    x293      C390      -1
    x294      __OBJ___  241
    x294      C32       -1
    x294      C93       -1
    x294      C119      -1
    x294      C207      -1
    x294      C308      -1
    x295      __OBJ___  600
    x295      C145      -1
    x295      C209      -1
    x295      C308      -1
    x302      __OBJ___  540
    x302      C391      -1
    x305      __OBJ___  396
    x305      C158      -1
    x305      C269      -1
    x305      C277      -1
    x306      __OBJ___  113
    x306      C80       -1
    x306      C197      -1
    x306      C365      -1
    x308      __OBJ___  106
    x308      C220      -1
    x308      C326      -1
    x312      __OBJ___  37
    x312      C126      -1
    x312      C294      -1
    x312      C368      -1
    x314      __OBJ___  351
    x314      C122      -1
    x314      C251      -1
    x315      __OBJ___  564
    x315      C44       -1
    x315      C79       -1
    x315      C325      -1
    x315      C328      -1
    x317      __OBJ___  139
    x317      C308      -1
    x317      C310      -1
    x319      __OBJ___  434
    x319      C97       -1
    x319      C131      -1
    x319      C158      -1
    x320      __OBJ___  166
    x320      C102      -1
    x320      C128      -1
    x320      C257      -1
    x325      __OBJ___  278
    x325      C14       -1
    x327      __OBJ___  127
    x327      C5        -1
    x327      C220      -1
    x327      C386      -1
    x334      __OBJ___  491
    x334      C270      -1
    x334      C369      -1
    x335      __OBJ___  96
    x335      C3        -1
    x335      C44       -1
    x335      C254      -1
    x336      __OBJ___  232
    x336      C142      -1
    x336      C352      -1
    x337      __OBJ___  667
    x337      C125      -1
    x337      C162      -1
    x337      C164      -1
    x338      __OBJ___  241
    x338      C117      -1
    x338      C179      -1
    x338      C294      -1
    x338      C377      -1
    x340      __OBJ___  594
    x340      C2        -1
    x340      C218      -1
    x343      __OBJ___  6
    x343      C63       -1
    x343      C336      -1
    x343      C338      -1
    x347      __OBJ___  409
    x347      C159      -1
    x356      __OBJ___  272
    x356      C12       -1
    x356      C88       -1
    x359      __OBJ___  702
    x359      C159      -1
    x359      C242      -1
    x359      C293      -1
    x359      C300      -1
    x361      __OBJ___  279
    x361      C157      -1
    x361      C372      -1
    x364      __OBJ___  15
    x364      C148      -1
    x364      C395      -1
    x366      __OBJ___  728
    x366      C152      -1
    x366      C162      -1
    x366      C347      -1
    x369      __OBJ___  588
    x369      C139      -1
    x369      C347      -1
    x373      __OBJ___  255
    x373      C134      -1
    x373      C270      -1
    x374      __OBJ___  40
    x374      C1        -1
    x374      C339      -1
    x377      __OBJ___  444
    x377      C11       -1
    x385      __OBJ___  257
    x385      C65       -1
    x385      C377      -1
    x388      __OBJ___  373
    x388      C97       -1
    x388      C397      -1
    x390      __OBJ___  453
    x390      C71       -1
    x390      C150      -1
    x390      C213      -1
    x390      C353      -1
    x391      __OBJ___  199
    x391      C89       -1
    x391      C171      -1
    x391      C308      -1
    x393      __OBJ___  187
    x393      C171      -1
    x393      C193      -1
    x394      __OBJ___  985
    x394      C207      -1
    x394      C310      -1
    x394      C349      -1
    x396      __OBJ___  515
    x396      C32       -1
    x396      C71       -1
    x396      C174      -1
    x396      C288      -1
    x396      C352      -1
    x397      __OBJ___  135
    x397      C34       -1
    x397      C338      -1
    x398      __OBJ___  350
    x398      C124      -1
    x398      C143      -1
    x398      C246      -1
    x398      C287      -1
    x399      __OBJ___  557
    x399      C116      -1
    x399      C391      -1
    x400      __OBJ___  702
    x400      C214      -1
    x400      C228      -1
    x400      C229      -1
    MARKER    'MARKER'                 'INTEND'
RHS
    RHS       __OBJ___  -19126
    RHS       C1        -1
    RHS       C2        -1
    RHS       C3        -1
    RHS       C5        -1
    RHS       C9        -1
    RHS       C11       -1
    RHS       C12       -1
    RHS       C13       -1
    RHS       C14       -1
    RHS       C17       -1
    RHS       C20       -1
    RHS       C26       -1
    RHS       C32       -1
    RHS       C33       -1
    RHS       C34       -1
    RHS       C43       -1
    RHS       C44       -1
    RHS       C46       -1
    RHS       C49       -1
    RHS       C50       -1
    RHS       C51       -1
    RHS       C53       -1
    RHS       C59       -1
    RHS       C60       -1
    RHS       C63       -1
    RHS       C65       -1
    RHS       C66       -1
    RHS       C68       -1
    RHS       C71       -1
    RHS       C72       -1
    RHS       C78       -1
    RHS       C79       -1
    RHS       C80       -1
    RHS       C81       -1
    RHS       C84       -1
    RHS       C88       -1
    RHS       C89       -1
    RHS       C93       -1
    RHS       C97       -1
    RHS       C99       -1
    RHS       C102      -1
    RHS       C108      -1
    RHS       C109      -1
    RHS       C112      -1
    RHS       C115      -1
    RHS       C116      -1
    RHS       C117      -1
    RHS       C119      -1
    RHS       C120      -1
    RHS       C122      -1
    RHS       C124      -1
    RHS       C125      -1
    RHS       C126      -1
    RHS       C128      -1
    RHS       C129      -1
    RHS       C131      -1
    RHS       C134      -1
    RHS       C136      -1
    RHS       C138      -1
    RHS       C139      -1
    RHS       C142      -1
    RHS       C143      -1
    RHS       C144      -1
    RHS       C145      -1
    RHS       C148      -1
    RHS       C149      -1
    RHS       C150      -1
    RHS       C151      -1
    RHS       C152      -1
    RHS       C153      -1
    RHS       C157      -1
    RHS       C158      -1
    RHS       C159      -1
    RHS       C160      -1
    RHS       C162      -1
    RHS       C164      -1
    RHS       C166      -1
    RHS       C171      -1
    RHS       C174      -1
    RHS       C176      -1
    RHS       C179      -1
    RHS       C181      -1
    RHS       C184      -1
    RHS       C187      -1
    RHS       C188      -1
    RHS       C191      -1
    RHS       C193      -1
    RHS       C195      -1
    RHS       C197      -1
    RHS       C198      -1
    RHS       C199      -1
    RHS       C200      -1
    RHS       C203      -1
    RHS       C204      -1
    RHS       C205      -1
    RHS       C207      -1
    RHS       C209      -1
    RHS       C210      -1
    RHS       C212      -1
    RHS       C213      -1
    RHS       C214      -1
    RHS       C215      -1
    RHS       C216      -1
    RHS       C218      -1
    RHS       C220      -1
    RHS       C221      -1
    RHS       C224      -1
    RHS       C225      -1
    RHS       C228      -1
    RHS       C229      -1
    RHS       C232      -1
    RHS       C236      -1
    RHS       C238      -1
    RHS       C242      -1
    RHS       C246      -1
    RHS       C247      -1
    RHS       C248      -1
    RHS       C251      -1
    RHS       C253      -1
    RHS       C254      -1
    RHS       C257      -1
    RHS       C258      -1
    RHS       C259      -1
    RHS       C261      -1
    RHS       C267      -1
    RHS       C268      -1
    RHS       C269      -1
    RHS       C270      -1
    RHS       C277      -1
    RHS       C278      -1
    RHS       C280      -1
    RHS       C282      -1
    RHS       C287      -1
    RHS       C288      -1
    RHS       C293      -1
    RHS       C294      -1
    RHS       C300      -1
    RHS       C303      -1
    RHS       C304      -1
    RHS       C308      -1
    RHS       C309      -1
    RHS       C310      -1
    RHS       C311      -1
    RHS       C315      -1
    RHS       C325      -1
    RHS       C326      -1
    RHS       C328      -1
    RHS       C334      -1
    RHS       C336      -1
    RHS       C338      -1
    RHS       C339      -1
    RHS       C343      -1
    RHS       C347      -1
    RHS       C349      -1
    RHS       C351      -1
    RHS       C352      -1
    RHS       C353      -1
    RHS       C359      -1
    RHS       C363      -1
    RHS       C365      -1
    RHS       C366      -1
    RHS       C368      -1
    RHS       C369      -1
    RHS       C372      -1
    RHS       C374      -1
    RHS       C377      -1
    RHS       C385      -1
    RHS       C386      -1
    RHS       C387      -1
    RHS       C390      -1
    RHS       C391      -1
    RHS       C394      -1
    RHS       C395      -1
    RHS       C397      -1
    RHS       C399      -1
BOUNDS
 UP BOUND     x2        1
 UP BOUND     x3        1
 UP BOUND     x4        1
 UP BOUND     x6        1
 UP BOUND     x7        1
 UP BOUND     x8        1
 UP BOUND     x10       1
 UP BOUND     x15       1
 UP BOUND     x18       1
 UP BOUND     x19       1
 UP BOUND     x20       1
 UP BOUND     x23       1
 UP BOUND     x28       1
 UP BOUND     x30       1
 UP BOUND     x31       1
 UP BOUND     x33       1
 UP BOUND     x34       1
 UP BOUND     x40       1
 UP BOUND     x41       1
 UP BOUND     x50       1
 UP BOUND     x52       1
 UP BOUND     x54       1
 UP BOUND     x58       1
 UP BOUND     x59       1
 UP BOUND     x60       1
 UP BOUND     x62       1
 UP BOUND     x63       1
 UP BOUND     x65       1
 UP BOUND     x68       1
 UP BOUND     x69       1
 UP BOUND     x71       1
 UP BOUND     x75       1
 UP BOUND     x80       1
 UP BOUND     x83       1
 UP BOUND     x89       1
 UP BOUND     x91       1
 UP BOUND     x92       1
 UP BOUND     x95       1
 UP BOUND     x96       1
 UP BOUND     x101      1
 UP BOUND     x103      1
 UP BOUND     x104      1
 UP BOUND     x106      1
 UP BOUND     x107      1
 UP BOUND     x110      1
 UP BOUND     x112      1
 UP BOUND     x114      1
 UP BOUND     x116      1
 UP BOUND     x119      1
 UP BOUND     x123      1
 UP BOUND     x124      1
 UP BOUND     x130      1
 UP BOUND     x134      1
 UP BOUND     x138      1
 UP BOUND     x139      1
 UP BOUND     x140      1
 UP BOUND     x145      1
 UP BOUND     x147      1
 UP BOUND     x148      1
 UP BOUND     x149      1
 UP BOUND     x150      1
 UP BOUND     x152      1
 UP BOUND     x154      1
 UP BOUND     x156      1
 UP BOUND     x157      1
 UP BOUND     x161      1
 UP BOUND     x163      1
 UP BOUND     x171      1
 UP BOUND     x174      1
 UP BOUND     x175      1
 UP BOUND     x176      1
 UP BOUND     x177      1
 UP BOUND     x180      1
 UP BOUND     x182      1
 UP BOUND     x183      1
 UP BOUND     x185      1
 UP BOUND     x188      1
 UP BOUND     x191      1
 UP BOUND     x193      1
 UP BOUND     x196      1
 UP BOUND     x207      1
 UP BOUND     x209      1
 UP BOUND     x210      1
 UP BOUND     x212      1
 UP BOUND     x213      1
 UP BOUND     x217      1
 UP BOUND     x218      1
 UP BOUND     x219      1
 UP BOUND     x220      1
 UP BOUND     x226      1
 UP BOUND     x228      1
 UP BOUND     x229      1
 UP BOUND     x230      1
 UP BOUND     x231      1
 UP BOUND     x234      1
 UP BOUND     x236      1
 UP BOUND     x238      1
 UP BOUND     x239      1
 UP BOUND     x240      1
 UP BOUND     x243      1
 UP BOUND     x244      1
 UP BOUND     x247      1
 UP BOUND     x248      1
 UP BOUND     x250      1
 UP BOUND     x254      1
 UP BOUND     x255      1
 UP BOUND     x259      1
 UP BOUND     x260      1
 UP BOUND     x261      1
 UP BOUND     x262      1
 UP BOUND     x264      1
 UP BOUND     x266      1
 UP BOUND     x272      1
 UP BOUND     x273      1
 UP BOUND     x274      1
 UP BOUND     x276      1
 UP BOUND     x279      1
 UP BOUND     x282      1
 UP BOUND     x283      1
 UP BOUND     x285      1
 UP BOUND     x286      1
 UP BOUND     x287      1
 UP BOUND     x289      1
 UP BOUND     x291      1
 UP BOUND     x293      1
 UP BOUND     x294      1
 UP BOUND     x295      1
 UP BOUND     x302      1
 UP BOUND     x305      1
 UP BOUND     x306      1
 UP BOUND     x308      1
 UP BOUND     x312      1
 UP BOUND     x314      1
 UP BOUND     x315      1
 UP BOUND     x317      1
 UP BOUND     x319      1
 UP BOUND     x320      1
 UP BOUND     x325      1
 UP BOUND     x327      1
 UP BOUND     x334      1
 UP BOUND     x335      1
 UP BOUND     x336      1
 UP BOUND     x337      1
 UP BOUND     x338      1
 UP BOUND     x340      1
 UP BOUND     x343      1
 UP BOUND     x347      1
 UP BOUND     x356      1
 UP BOUND     x359      1
 UP BOUND     x361      1
 UP BOUND     x364      1
 UP BOUND     x366      1
 UP BOUND     x369      1
 UP BOUND     x373      1
 UP BOUND     x374      1
 UP BOUND     x377      1
 UP BOUND     x385      1
 UP BOUND     x388      1
 UP BOUND     x390      1
 UP BOUND     x391      1
 UP BOUND     x393      1
 UP BOUND     x394      1
 UP BOUND     x396      1
 UP BOUND     x397      1
 UP BOUND     x398      1
 UP BOUND     x399      1
 UP BOUND     x400      1
ENDATA
